# Solution for model F-JSSP-SDST
# Objective value = 874
B0(13) 1
B1(17) 0
B2(12) 1
B3(16) 0
B4(17) 1
B5(17) 1
B6(10) 1
B7(14) 0
B8(9) 0
B9(13) 1
B10(0) 0
B11(4) 0
B12(2) 0
B13(2) 0
B14(4) 0
B15(4) 0
B16(4) 1
B17(0) 0
B18(2) 0
B19(2) 0
B20(4) 0
B21(4) 0
B22(0) 0
B23(0) 0
B24(0) 0
B25(2) 0
B26(2) 0
B27(2) 0
B28(0) 0
B29(0) 0
B30(2) 1
B31(0) 0
B32(2) 0
B33(2) 0
B34(0) 0
B35(0) 0
B36(0) 0
B37(0) 0
B38(0) 0
B39(0) 0
B40(0) 0
B41(0) 0
B42(0) 0
B43(0) 0
B44(0) 0
B45(0) 0
I46(14) 0
I47(18) 0
I48(15) 63
I49(19) 0
I50(17) 11
I51(18) 142
I52(10) 161
I53(14) 0
I54(11) 0
I55(15) 306
I56(1) 874
